Version identifier: 22.1.0.0 | 2022-03-09 | 1a383f8ce
CPXPARAM_Read_DataCheck                          1
CPXPARAM_TimeLimit                               600
Tried aggregator 4 times.
MIP Presolve eliminated 149248 rows and 12167 columns.
MIP Presolve modified 1518 coefficients.
Aggregator did 140144 substitutions.
Reduced MIP has 12778 rows, 142313 columns, and 297695 nonzeros.
Reduced MIP has 142269 binaries, 44 generals, 0 SOSs, and 0 indicators.
Presolve time = 2.09 sec. (2155.69 ticks)
Tried aggregator 1 time.
Detecting symmetries...
Reduced MIP has 12778 rows, 142313 columns, and 297695 nonzeros.
Reduced MIP has 142269 binaries, 44 generals, 0 SOSs, and 0 indicators.
Presolve time = 0.39 sec. (241.97 ticks)
Probing fixed 66 vars, tightened 0 bounds.
Probing time = 0.84 sec. (75.18 ticks)
Clique table members: 287480.
MIP emphasis: balance optimality and feasibility.
MIP search method: dynamic search.
Parallel mode: deterministic, using up to 8 threads.
Root relaxation solution time = 2.77 sec. (1106.68 ticks)

        Nodes                                         Cuts/
   Node  Left     Objective  IInf  Best Integer    Best Bound    ItCnt     Gap

      0     0       44.3888  9561                     44.3888       25         
      0     0       71.0000  1136                    Cuts: 47    26160         
      0     0       71.0000  1271                    Cuts: 87    42833         
      0     0       71.0000  1029                    Cuts: 72    60340         
      0     0       71.0000  1035                ZeroHalf: 67    79255         
Heuristic still looking.
Heuristic still looking.

Clique cuts applied:  3
Zero-half cuts applied:  175
Lift and project cuts applied:  1
Gomory fractional cuts applied:  30

Root node processing (before b&c):
  Real time             =  600.05 sec. (263086.07 ticks)
Parallel b&c, 8 threads:
  Real time             =    0.00 sec. (0.00 ticks)
  Sync time (average)   =    0.00 sec.
  Wait time (average)   =    0.00 sec.
                          ------------
Total (root+branch&cut) =  600.05 sec. (263086.07 ticks)
